Results/Experiment 1 Results/New Benchmark/RES_60/output_p1_0.00_p2_0.00_n_60_05.txt
solutions: 373248 nodes: 678154  modelTime: 157  solveTime: 2154  totalTime: 2321  modelSize: 7853  readTime: 10 matchingSize: 30
